10	5
0	2	1	2
1	4	7	9	10	6
2	2	3	8
3	1	4
4	1	5
5	2	6	7
6	1	11
7	1	11
8	1	11
9	1	11
10	1	11
11	0
0	0	0	0	0	0	0
1	7	2	2	4	3	3
2	2	3	5	1	2	2
3	3	1	1	3	4	2
4	7	4	5	3	4	2
5	5	3	2	1	2	3
6	10	5	3	1	1	5
7	7	1	5	3	1	5
8	8	2	2	2	3	1
9	9	5	5	5	4	3
10	4	5	4	4	1	4
11	0	0	0	0	0	0
7	7	6	6	7
